(set-info :smt-lib-version 2.6)
(set-logic UF)
(set-info :source |Benchmarks from the paper: "Extending Sledgehammer with SMT Solvers" by Jasmin Blanchette, Sascha Bohme, and Lawrence C. Paulson, CADE 2011.  Translated to SMT2 by Andrew Reynolds and Morgan Deters.|)
(set-info :category "industrial")
(set-info :status unsat)
(declare-sort S1 0)
(declare-sort S2 0)
(declare-sort S3 0)
(declare-sort S4 0)
(declare-sort S5 0)
(declare-sort S6 0)
(declare-sort S7 0)
(declare-sort S8 0)
(declare-sort S9 0)
(declare-fun f1 () S1)
(declare-fun f2 () S1)
(declare-fun f3 (S2 S3) S1)
(declare-fun f4 () S3)
(declare-fun f5 (S4 S2) S1)
(declare-fun f6 (S5 S6) S4)
(declare-fun f7 (S7 S6) S5)
(declare-fun f8 () S7)
(declare-fun f9 () S6)
(declare-fun f10 () S6)
(declare-fun f11 () S2)
(declare-fun f12 (S8 S6) S2)
(declare-fun f13 (S9 S6) S8)
(declare-fun f14 (S2) S9)
(declare-fun f15 (S2) S9)
(declare-fun f16 (S2) S8)
(declare-fun f17 (S2) S8)
(declare-fun f18 (S2 S4) S1)
(declare-fun f19 (S2 S6 S6) S1)
(assert (not (= f1 f2)))
(assert (not (exists ((?v0 S2)) (and (= (f3 ?v0 f4) f1) (= (f5 (f6 (f7 f8 f9) f10) ?v0) f1)))))
(assert (= (f3 f11 f4) f1))
(assert (= (f3 f11 f4) f1))
(assert (=> (forall ((?v0 S2)) (=> (= (f3 ?v0 f4) f1) false)) false))
(assert (not (= f9 f10)))
(assert (forall ((?v0 S2) (?v1 S6) (?v2 S6)) (=> (= (f3 ?v0 f4) f1) (=> (not (= ?v1 ?v2)) (= (not (= (f5 (f6 (f7 f8 ?v1) ?v2) ?v0) f1)) (= (f5 (f6 (f7 f8 ?v2) ?v1) ?v0) f1))))))
(assert (forall ((?v0 S2) (?v1 S6) (?v2 S6)) (=> (= (f3 ?v0 f4) f1) (=> (= (f5 (f6 (f7 f8 ?v1) ?v2) ?v0) f1) (=> (= (f5 (f6 (f7 f8 ?v2) ?v1) ?v0) f1) false)))))
(assert (forall ((?v0 S6) (?v1 S6) (?v2 S2) (?v3 S6) (?v4 S6)) (let ((?v_0 (f7 f8 ?v3))) (let ((?v_1 (f6 ?v_0 ?v4))) (=> (not (= ?v0 ?v1)) (=> (= (f3 ?v2 f4) f1) (= (= (f5 ?v_1 (f12 (f13 (f14 ?v2) ?v0) ?v1)) f1) (and (not (= ?v3 ?v4)) (ite (= ?v3 ?v1) (= (f5 (f6 (f7 f8 ?v0) ?v4) ?v2) f1) (ite (= ?v4 ?v1) (or (= ?v3 ?v0) (= (f5 (f6 ?v_0 ?v0) ?v2) f1)) (= (f5 ?v_1 ?v2) f1)))))))))))
(assert (forall ((?v0 S6) (?v1 S6) (?v2 S2) (?v3 S6) (?v4 S6)) (let ((?v_0 (f7 f8 ?v3))) (let ((?v_1 (f6 ?v_0 ?v4))) (=> (not (= ?v0 ?v1)) (=> (= (f3 ?v2 f4) f1) (= (= (f5 ?v_1 (f12 (f13 (f15 ?v2) ?v0) ?v1)) f1) (and (not (= ?v3 ?v4)) (ite (= ?v4 ?v0) (= (f5 (f6 ?v_0 ?v1) ?v2) f1) (ite (= ?v3 ?v0) (or (= ?v4 ?v1) (= (f5 (f6 (f7 f8 ?v1) ?v4) ?v2) f1)) (= (f5 ?v_1 ?v2) f1)))))))))))
(assert (exists ((?v0 S2)) (= (f3 ?v0 f4) f1)))
(assert (forall ((?v0 S6) (?v1 S6) (?v2 S2)) (=> (not (= ?v0 ?v1)) (=> (= (f3 ?v2 f4) f1) (= (f3 (f12 (f13 (f14 ?v2) ?v0) ?v1) f4) f1)))))
(assert (forall ((?v0 S6) (?v1 S6) (?v2 S2)) (=> (not (= ?v0 ?v1)) (=> (= (f3 ?v2 f4) f1) (= (f3 (f12 (f13 (f15 ?v2) ?v0) ?v1) f4) f1)))))
(assert (forall ((?v0 S2) (?v1 S6)) (=> (= (f3 ?v0 f4) f1) (= (f3 (f12 (f16 ?v0) ?v1) f4) f1))))
(assert (forall ((?v0 S2) (?v1 S6)) (=> (= (f3 ?v0 f4) f1) (= (f3 (f12 (f17 ?v0) ?v1) f4) f1))))
(assert (forall ((?v0 S6) (?v1 S6) (?v2 S2) (?v3 S6)) (let ((?v_0 (f6 (f7 f8 ?v0) ?v1))) (= (= (f5 ?v_0 (f12 (f16 ?v2) ?v3)) f1) (and (not (= ?v1 ?v3)) (ite (= ?v0 ?v3) (not (= ?v0 ?v1)) (= (f5 ?v_0 ?v2) f1)))))))
(assert (forall ((?v0 S6) (?v1 S6) (?v2 S2) (?v3 S6)) (let ((?v_0 (f6 (f7 f8 ?v0) ?v1))) (= (= (f5 ?v_0 (f12 (f17 ?v2) ?v3)) f1) (and (not (= ?v0 ?v3)) (ite (= ?v1 ?v3) (not (= ?v0 ?v1)) (= (f5 ?v_0 ?v2) f1)))))))
(assert (forall ((?v0 S2)) (= (forall ((?v1 S4)) (= (f18 ?v0 ?v1) f1)) (forall ((?v1 S6) (?v2 S6)) (= (f18 ?v0 (f6 (f7 f8 ?v1) ?v2)) f1)))))
(assert (forall ((?v0 S6) (?v1 S6) (?v2 S6) (?v3 S6)) (= (= (f6 (f7 f8 ?v0) ?v1) (f6 (f7 f8 ?v2) ?v3)) (and (= ?v0 ?v2) (= ?v1 ?v3)))))
(assert (forall ((?v0 S6) (?v1 S6) (?v2 S6) (?v3 S6)) (=> (= (f6 (f7 f8 ?v0) ?v1) (f6 (f7 f8 ?v2) ?v3)) (=> (=> (= ?v0 ?v2) (=> (= ?v1 ?v3) false)) false))))
(assert (forall ((?v0 S4)) (=> (forall ((?v1 S6) (?v2 S6)) (=> (= ?v0 (f6 (f7 f8 ?v1) ?v2)) false)) false)))
(assert (forall ((?v0 S4)) (=> (forall ((?v1 S6) (?v2 S6)) (=> (= ?v0 (f6 (f7 f8 ?v1) ?v2)) false)) false)))
(assert (forall ((?v0 S2)) (= (exists ((?v1 S4)) (= (f18 ?v0 ?v1) f1)) (exists ((?v1 S6) (?v2 S6)) (= (f18 ?v0 (f6 (f7 f8 ?v1) ?v2)) f1)))))
(assert (forall ((?v0 S2) (?v1 S6) (?v2 S6)) (=> (= (f18 ?v0 (f6 (f7 f8 ?v1) ?v2)) f1) (= (f19 ?v0 ?v1 ?v2) f1))))
(assert (forall ((?v0 S2) (?v1 S6) (?v2 S6)) (= (= (f19 ?v0 ?v1 ?v2) f1) (= (f18 ?v0 (f6 (f7 f8 ?v1) ?v2)) f1))))
(check-sat)
(exit)
